\* The_Node_Matching_Problem *\
Minimize
Total_distance_between_matched_nodes: 0.83 w11 + 1.83 w12 + 2.5 w13 + 4 w14
 + 4.5 w15 + 2.33 w21 + 0.5 w22 + 1.5 w23 + 5.5 w24 + 5.5 w25 + 5.33 w31
 + 4 w32 + 8 w34 + 8 w35 + 2.5 w41 + 2 w42 + 3 w43 + 3 w44 + 3 w45 + 1.33 w51
 + 2.5 w52 + 2.5 w53 + 0.5 w54 + 1.5 w55 + 2.33 w61 + 3 w62 + 3 w63 + 2 w64
 + w65 + z11 + 2.17 z12 + 2.67 z13 + 4.83 z14 + 4.17 z15 + 4.67 z16 + 1.67 z21
 + z23 + 4 z24 + 5 z25 + 5 z26 + 5.33 z31 + 4 z32 + 8 z34 + 8 z35 + 8 z36
 + 2.33 z41 + 3.5 z42 + 3.5 z43 + 3.5 z44 + 1.5 z45 + 2.5 z46 + 4.33 z51
 + 5 z52 + 5 z53 + 5 z54 + 4 z55 + 3 z56
Subject To
_C1: z11 + z12 + z13 + z14 + z15 + z16 = 1
_C10: w51 + w52 + w53 + w54 + w55 = 1
_C11: w61 + w62 + w63 + w64 + w65 = 1
_C2: z21 + z22 + z23 + z24 + z25 + z26 = 1
_C3: z31 + z32 + z33 + z34 + z35 + z36 = 1
_C4: z41 + z42 + z43 + z44 + z45 + z46 = 1
_C5: z51 + z52 + z53 + z54 + z55 + z56 = 1
_C6: w11 + w12 + w13 + w14 + w15 = 1
_C7: w21 + w22 + w23 + w24 + w25 = 1
_C8: w31 + w32 + w33 + w34 + w35 = 1
_C9: w41 + w42 + w43 + w44 + w45 = 1
Binaries
w11
w12
w13
w14
w15
w21
w22
w23
w24
w25
w31
w32
w33
w34
w35
w41
w42
w43
w44
w45
w51
w52
w53
w54
w55
w61
w62
w63
w64
w65
z11
z12
z13
z14
z15
z16
z21
z22
z23
z24
z25
z26
z31
z32
z33
z34
z35
z36
z41
z42
z43
z44
z45
z46
z51
z52
z53
z54
z55
z56
End
